
Gurobi 7.0.2 (linux64, Python) logging started Fri Apr 21 19:26:40 2017


Gurobi 7.0.2 (linux64, Python) logging started Fri Apr 21 19:36:14 2017


Gurobi 7.0.2 (linux64, Python) logging started Fri Apr 21 19:37:03 2017


Gurobi 7.0.2 (linux64, Python) logging started Fri Apr 21 20:00:02 2017


Gurobi 7.0.2 (linux64, Python) logging started Fri Apr 21 20:45:25 2017


Gurobi 7.0.2 (linux64, Python) logging started Tue May  2 11:56:49 2017


Gurobi 7.0.2 (linux64, Python) logging started Fri May  5 13:00:18 2017


Gurobi 7.0.2 (linux64, Python) logging started Fri May  5 13:27:36 2017


Gurobi 7.0.2 (linux64, Python) logging started Fri May  5 13:28:04 2017


Gurobi 7.0.2 (linux64, Python) logging started Fri May  5 13:30:03 2017


Gurobi 7.0.2 (linux64, Python) logging started Fri May  5 13:38:09 2017


Gurobi 7.0.2 (linux64, Python) logging started Mon May  8 12:55:27 2017


Gurobi 7.0.2 (linux64, Python) logging started Tue May  9 13:41:58 2017

